int NumberPatients = 100
int NumberOfRooms = 1
int NumberSurgeons = 20
int NumberOfDays = 6
Duration = [47,103,103,103,131,93,60,103,263,60,117,47,119,103,119,119,119,103,32,132,46,103,31,47,30,75,105,159,103,66,93,97,32,31,66,227,252,114,66,32,131,103,119,78,30,101,78,32,88,66,85,238,87,60,114,118,80,75,29,210,46,103,119,105,93,75,98,31,103,32,50,119,263,32,103,31,119,103,252,72,78,98,32,201,60,46,201,100,97,96,47,32,47,58,31,31,166,32,60,66];
Priority = [0,0,0,0,0,0,0,0,0,0,0,0,0,0,0,0,0,0,0,0,0,0,0,1,0,0,0,0,0,0,0,2,0,0,0,0,0,0,0,0,0,0,0,0,0,0,0,0,0,0,0,1,0,0,0,0,0,0,0,0,0,0,0,0,0,0,0,0,0,0,0,0,0,0,0,0,0,0,0,0,0,0,0,0,0,0,0,0,0,0,0,0,0,0,0,0,0,0,0,0];
Waiting = [46,25,35,36,200,51,253,499,172,135,102,507,487,78,155,64,141,84,127,354,121,30,141,185,122,191,172,107,289,45,178,141,53,141,21,190,158,78,394,211,46,247,141,56,107,164,52,204,108,135,221,121,35,155,177,106,70,79,316,123,24,57,438,211,53,221,72,116,24,63,319,141,114,149,338,507,79,43,494,23,387,205,211,45,141,120,107,375,155,366,148,178,106,135,200,46,141,106,155,39];
Surgeon = [11,2,6,5,9,1,6,2,10,5,6,5,2,1,5,5,5,1,6,3,3,8,1,7,4,5,2,4,2,6,1,6,10,5,4,8,7,1,2,2,3,2,5,6,4,2,4,2,3,6,3,1,4,3,1,12,5,3,5,6,4,1,1,9,5,6,4,5,1,3,7,6,1,7,8,3,2,1,1,7,4,5,5,5,7,4,5,12,5,1,8,4,3,3,3,5,1,3,9,4];
BlockAvailability = [[[1,1]],[[0,0]],[[0,1]],[[0,0]],[[1,0]],[[0,0]]];
SurgeonAvailability = [[[1,0],[1,1],[0,1],[1,0],[0,0],[0,1]],[[1,1],[1,1],[1,1],[1,1],[1,0],[1,0]],[[1,1],[1,1],[1,1],[0,1],[1,1],[1,0]],[[1,1],[1,1],[1,1],[1,0],[0,1],[1,0]],[[0,1],[1,0],[0,0],[1,1],[1,1],[0,1]],[[1,1],[1,1],[0,0],[1,1],[1,1],[1,1]],[[0,1],[1,1],[1,1],[1,0],[1,0],[1,1]],[[1,1],[1,1],[1,0],[1,1],[0,0],[1,0]],[[1,1],[1,1],[0,1],[1,1],[0,0],[1,1]],[[0,1],[0,0],[1,1],[1,0],[1,1],[1,0]],[[1,1],[0,1],[1,1],[1,1],[1,1],[1,0]],[[1,1],[1,1],[1,0],[1,1],[1,0],[1,0]],[[0,1],[0,1],[1,1],[1,1],[1,1],[1,1]],[[0,1],[1,1],[1,1],[1,1],[1,1],[0,0]],[[1,1],[0,1],[1,1],[1,1],[1,1],[0,1]],[[1,1],[1,0],[0,0],[1,1],[0,1],[1,0]],[[1,1],[1,0],[1,1],[1,1],[1,1],[0,1]],[[1,1],[0,0],[1,1],[1,1],[1,1],[1,1]],[[0,1],[1,1],[1,1],[0,1],[1,0],[1,1]],[[1,1],[1,1],[1,1],[1,1],[1,1],[1,1]]];
